benchmarks/bfuzz0/20864232226017138283105643991805123740.smt2
(set-logic QF_FP)
(declare-const x0 (_ FloatingPoint 8 24))
(declare-const x1 (_ FloatingPoint 8 24))
(declare-const x2 (_ FloatingPoint 8 24))
(declare-const x3 (_ FloatingPoint 8 24))
(declare-const x4 (_ FloatingPoint 8 24))
(declare-const x5 (_ FloatingPoint 8 24))
(declare-const x6 (_ FloatingPoint 8 24))
(declare-const x7 (_ FloatingPoint 8 24))
(declare-const x8 (_ FloatingPoint 8 24))
(declare-const x9 (_ FloatingPoint 8 24))
(declare-const x10 (_ FloatingPoint 8 24))
(declare-const x11 (_ FloatingPoint 8 24))
(declare-const x12 (_ FloatingPoint 8 24))
(declare-const x13 (_ FloatingPoint 8 24))
(declare-const x14 (_ FloatingPoint 8 24))
(declare-const x15 (_ FloatingPoint 8 24))
(assert (fp.geq (fp.mul RNE (fp.sub RNE (fp.sub RNE x1 x2) (fp.neg x2)) (fp.add RNE (fp.add RNE x9 x3) (fp.add RNE x3 x4))) (fp.neg (fp.add RNE (fp.add RNE x10 x4) (fp.div RNE x13 x12)))))
(assert (fp.leq (fp.div RNE (fp.div RNE (fp.mul RNE x5 x12) (fp.sub RNE x0 x13)) (fp.neg (fp.mul RNE x14 x1))) (fp.sub RNE (fp.neg (fp.sub RNE x10 x12)) (fp.mul RNE (fp.sub RNE x8 x15) (fp.mul RNE x0 x14)))))
(assert (fp.geq (fp.sub RNE (fp.sub RNE (fp.sub RNE x11 x2) (fp.div RNE x10 x5)) (fp.mul RNE (fp.sub RNE x5 x8) (fp.sub RNE x2 x11))) (fp.mul RNE (fp.add RNE (fp.neg x6) (fp.mul RNE x13 x5)) (fp.mul RNE (fp.div RNE x14 x6) (fp.add RNE x14 x5)))))
(assert (fp.eq (fp.mul RNE (fp.div RNE (fp.mul RNE x12 x8) (fp.add RNE x10 x12)) (fp.div RNE (fp.div RNE x9 x4) (fp.add RNE x1 x2))) (fp.div RNE (fp.mul RNE (fp.sub RNE x15 x3) (fp.div RNE x2 x14)) (fp.div RNE (fp.sub RNE x8 x13) (fp.add RNE x12 x4)))))
(assert (fp.lt (fp.sub RNE (fp.add RNE (fp.div RNE x0 x14) (fp.add RNE x8 x0)) (fp.mul RNE (fp.sub RNE x8 x3) (fp.div RNE x10 x4))) (fp.mul RNE (fp.add RNE (fp.add RNE x13 x0) (fp.neg x7)) (fp.add RNE (fp.sub RNE x3 x9) (fp.add RNE x0 x10)))))
(assert (fp.gt (fp.sub RNE (fp.add RNE (fp.neg x0) (fp.mul RNE x9 x0)) (fp.sub RNE (fp.div RNE x4 x8) (fp.sub RNE x4 x3))) (fp.mul RNE (fp.add RNE (fp.mul RNE x15 x5) (fp.add RNE x14 x15)) (fp.add RNE (fp.add RNE x11 x11) (fp.neg x15)))))
(assert (fp.geq (fp.mul RNE (fp.div RNE (fp.add RNE x4 x11) (fp.sub RNE x6 x12)) (fp.add RNE (fp.add RNE x3 x9) (fp.div RNE x7 x0))) (fp.mul RNE (fp.sub RNE (fp.mul RNE x14 x15) (fp.add RNE x13 x5)) (fp.div RNE (fp.neg x2) (fp.sub RNE x5 x3)))))
(assert (fp.lt (fp.neg (fp.sub RNE (fp.sub RNE x3 x12) (fp.neg x15))) (fp.sub RNE (fp.neg (fp.add RNE x0 x7)) (fp.neg (fp.add RNE x7 x5)))))
(assert (fp.gt (fp.sub RNE (fp.div RNE (fp.add RNE x3 x12) (fp.add RNE x4 x0)) (fp.mul RNE (fp.mul RNE x5 x11) (fp.div RNE x12 x1))) (fp.add RNE (fp.add RNE (fp.add RNE x15 x15) (fp.mul RNE x14 x7)) (fp.div RNE (fp.add RNE x1 x13) (fp.add RNE x12 x13)))))
(assert (fp.lt (fp.mul RNE (fp.div RNE (fp.mul RNE x3 x8) (fp.mul RNE x8 x1)) (fp.sub RNE (fp.sub RNE x0 x4) (fp.div RNE x0 x9))) (fp.mul RNE (fp.div RNE (fp.neg x4) (fp.sub RNE x12 x11)) (fp.neg (fp.add RNE x15 x8)))))
(assert (fp.lt (fp.neg (fp.add RNE (fp.mul RNE x2 x1) (fp.div RNE x0 x3))) (fp.add RNE (fp.div RNE (fp.div RNE x7 x6) (fp.sub RNE x4 x7)) (fp.mul RNE (fp.mul RNE x8 x12) (fp.div RNE x1 x12)))))
(assert (fp.leq (fp.add RNE (fp.neg (fp.mul RNE x11 x0)) (fp.mul RNE (fp.div RNE x8 x11) (fp.neg x0))) (fp.div RNE (fp.div RNE (fp.add RNE x7 x6) (fp.div RNE x15 x0)) (fp.mul RNE (fp.mul RNE x8 x15) (fp.div RNE x14 x1)))))
(assert (fp.lt (fp.mul RNE (fp.add RNE (fp.neg x6) (fp.sub RNE x7 x3)) (fp.mul RNE (fp.div RNE x6 x5) (fp.sub RNE x13 x1))) (fp.add RNE (fp.div RNE (fp.div RNE x6 x12) (fp.neg x14)) (fp.mul RNE (fp.mul RNE x13 x14) (fp.div RNE x5 x4)))))
(check-sat)
