db/data/20864232226017138283105643991805123740.z3.out
-------------------
2500.106974222
